NAME : H-n20-k7
CAPACITY : 178
NODE_COORD_SECTION
1   420   134
2   485   267
3   93   77
4   321   443
5   404   245
6   318   214
7   188   422
8   87   327
9   231   411
10   469   237
11   297   370
12   450   462
13   494   326
14   417   389
15   454   250
16   147   50
17   68   308
18   275   492
19   108   366
20   274   141
DEMAND_SECTION
1   0
2   67
3   62
4   98
5   87
6   80
7   82
8   62
9   95
10   64
11   42
12   96
13   64
14   61
15   71
16   39
17   17
18   58
19   26
20   47
DEPOT_SECTION
    1
    -1
EOF